Welcome to the CBC MILP Solver
Version: Devel (unstable)
Build Date: Feb  6 2022
command line - -import /home/danilo/psp-janniele/J30/j3058/j3058_6.lp -timeM elapsed -seconds 10800 -solve -quit (default strategy 1)
seconds was changed from 1e+08 to 10800
Continuous objective value is 0 - 0.031858 seconds
Cgl0002I 32 variables fixed
Cgl0003I 0 fixed, 0 tightened bounds, 8 strengthened rows, 0 substitutions
Cgl0003I 0 fixed, 0 tightened bounds, 8 strengthened rows, 0 substitutions
Cgl0003I 0 fixed, 0 tightened bounds, 7 strengthened rows, 0 substitutions
Cgl0003I 0 fixed, 0 tightened bounds, 6 strengthened rows, 0 substitutions
Cgl0003I 0 fixed, 0 tightened bounds, 6 strengthened rows, 0 substitutions
Cgl0003I 0 fixed, 0 tightened bounds, 5 strengthened rows, 0 substitutions
Cgl0003I 0 fixed, 0 tightened bounds, 4 strengthened rows, 0 substitutions
Cgl0003I 0 fixed, 0 tightened bounds, 4 strengthened rows, 0 substitutions
Cgl0003I 0 fixed, 0 tightened bounds, 4 strengthened rows, 0 substitutions
Cgl0004I processed model has 165 rows, 283 columns (283 integer (283 of which binary)) and 2928 elements
Coin3009W Conflict graph built in 0.009 seconds, density: 2.115%
Cgl0015I Clique Strengthening extended 0 cliques, 0 were dominated
Cbc0045I No integer variables out of 283 objects (283 integer) have costs
Cbc0045I branch on satisfied N create fake objective Y random cost Y
Cbc0038I Initial state - 4 integers unsatisfied sum - 2
Cbc0038I Pass   1: suminf.    0.25000 (2) obj. 0 iterations 7
Cbc0038I Pass   2: suminf.    0.50000 (2) obj. 0 iterations 7
Cbc0038I Pass   3: suminf.    0.75000 (3) obj. 0 iterations 9
Cbc0038I Pass   4: suminf.    0.25000 (2) obj. 0 iterations 9
Cbc0038I Pass   5: suminf.    1.00000 (3) obj. 0 iterations 48
Cbc0038I Pass   6: suminf.    0.00000 (0) obj. 0 iterations 29
Cbc0038I Solution found of 0
Cbc0038I Before mini branch and bound, 259 integers at bound fixed and 0 continuous
Cbc0038I Mini branch and bound did not improve solution (0.47 seconds)
Cbc0038I After 0.47 seconds - Feasibility pump exiting with objective of 0 - took 0.02 seconds
Cbc0012I Integer solution of 0 found by feasibility pump after 0 iterations and 0 nodes (0.47 seconds)
Cbc0001I Search completed - best objective 0, took 0 iterations and 0 nodes (0.47 seconds)
Cbc0035I Maximum depth 0, 0 variables fixed on reduced cost
Cuts at root node changed objective from 0 to 0
Probing was tried 0 times and created 0 cuts of which 0 were active after adding rounds of cuts (0 seconds)
Gomory was tried 0 times and created 0 cuts of which 0 were active after adding rounds of cuts (0 seconds)
Knapsack was tried 0 times and created 0 cuts of which 0 were active after adding rounds of cuts (0 seconds)
Clique was tried 0 times and created 0 cuts of which 0 were active after adding rounds of cuts (0 seconds)
OddWheel was tried 0 times and created 0 cuts of which 0 were active after adding rounds of cuts (0 seconds)
MixedIntegerRounding2 was tried 0 times and created 0 cuts of which 0 were active after adding rounds of cuts (0 seconds)
FlowCover was tried 0 times and created 0 cuts of which 0 were active after adding rounds of cuts (0 seconds)
TwoMirCuts was tried 0 times and created 0 cuts of which 0 were active after adding rounds of cuts (0 seconds)
ZeroHalf was tried 0 times and created 0 cuts of which 0 were active after adding rounds of cuts (0 seconds)

Result - Optimal solution found
Objective value:                0
Enumerated nodes:               0
Total iterations:               0
Time (CPU seconds):             0.538293
Time (Wallclock seconds):       0.483021
Total time (CPU seconds):       0.577719   (Wallclock seconds):       0.516983
